CST05
Position Depot: Center
Horizon for Depot: Small
Position of customers: Cluster
Distribution of the demand: Small
Width of time windows: Tight
Distribution of the service: Large

VEHICLE 
NUMBER 	 CAPACITY 
 5 	 	 133 
 
CUSTOMER
CUST NO. 	 XCOORD.  	 YCOORD. 	 DEMAND 	 READY TIME 	 DUE DATE 	 SERVICE TIME 
 0 	 	 500 	 	 500 	 	 0 	 	 0 	 	 1623 	 	 0 
  1 	 	 997 	 	 705 	 	 7 	 	 1396 	 	 1500 	 	 176 
  2 	 	 400 	 	 450 	 	 5 	 	 550 	 	 620 	 	 159 
  3 	 	 251 	 	 366 	 	 7 	 	 1209 	 	 1337 	 	 113 
  4 	 	 796 	 	 580 	 	 10 	 	 1275 	 	 1446 	 	 159 
  5 	 	 889 	 	 164 	 	 6 	 	 1076 	 	 1210 	 	 195 
  6 	 	 319 	 	 608 	 	 10 	 	 1026 	 	 1129 	 	 143 
  7 	 	 676 	 	 3 	 	 7 	 	 443 	 	 579 	 	 141 
  8 	 	 498 	 	 167 	 	 7 	 	 224 	 	 366 	 	 157 
  9 	 	 422 	 	 363 	 	 9 	 	 1347 	 	 1525 	 	 100 
  10 	 	 286 	 	 710 	 	 5 	 	 960 	 	 1145 	 	 153 
  11 	 	 662 	 	 16 	 	 9 	 	 1427 	 	 1483 	 	 194 
  12 	 	 875 	 	 870 	 	 6 	 	 1256 	 	 1447 	 	 185 
  13 	 	 498 	 	 602 	 	 6 	 	 308 	 	 395 	 	 177 
  14 	 	 316 	 	 296 	 	 7 	 	 167 	 	 302 	 	 148 
  15 	 	 780 	 	 725 	 	 10 	 	 794 	 	 956 	 	 121 
  16 	 	 587 	 	 58 	 	 6 	 	 364 	 	 495 	 	 191 
  17 	 	 762 	 	 580 	 	 7 	 	 227 	 	 381 	 	 169 
  18 	 	 910 	 	 483 	 	 8 	 	 282 	 	 451 	 	 128 
  19 	 	 451 	 	 466 	 	 7 	 	 5 	 	 65 	 	 114 
  20 	 	 856 	 	 214 	 	 8 	 	 856 	 	 987 	 	 150 
  21 	 	 217 	 	 462 	 	 6 	 	 791 	 	 968 	 	 155 
  22 	 	 843 	 	 545 	 	 7 	 	 1520 	 	 1623 	 	 150 
  23 	 	 437 	 	 446 	 	 9 	 	 248 	 	 350 	 	 157 
  24 	 	 206 	 	 376 	 	 6 	 	 602 	 	 799 	 	 186 
  25 	 	 956 	 	 615 	 	 10 	 	 1441 	 	 1606 	 	 193 
  26 	 	 877 	 	 154 	 	 5 	 	 1166 	 	 1270 	 	 144 
  27 	 	 398 	 	 128 	 	 8 	 	 1428 	 	 1482 	 	 112 
  28 	 	 751 	 	 584 	 	 8 	 	 631 	 	 733 	 	 108 
  29 	 	 275 	 	 251 	 	 6 	 	 1534 	 	 1623 	 	 137 
  30 	 	 305 	 	 280 	 	 5 	 	 367 	 	 453 	 	 129 
  31 	 	 530 	 	 205 	 	 8 	 	 964 	 	 1046 	 	 171 
  32 	 	 994 	 	 756 	 	 7 	 	 577 	 	 743 	 	 196 
  33 	 	 906 	 	 175 	 	 6 	 	 441 	 	 572 	 	 127 
  34 	 	 332 	 	 577 	 	 6 	 	 1138 	 	 1321 	 	 105 
  35 	 	 237 	 	 598 	 	 10 	 	 182 	 	 308 	 	 155 
  36 	 	 790 	 	 580 	 	 5 	 	 1166 	 	 1328 	 	 160 
  37 	 	 862 	 	 654 	 	 9 	 	 242 	 	 432 	 	 180 
  38 	 	 932 	 	 867 	 	 9 	 	 460 	 	 623 	 	 156 
  39 	 	 833 	 	 584 	 	 10 	 	 584 	 	 638 	 	 101 
  40 	 	 289 	 	 493 	 	 6 	 	 551 	 	 680 	 	 120 
  41 	 	 471 	 	 159 	 	 8 	 	 1407 	 	 1578 	 	 157 
  42 	 	 289 	 	 91 	 	 10 	 	 656 	 	 729 	 	 172 
  43 	 	 993 	 	 683 	 	 5 	 	 389 	 	 578 	 	 161 
  44 	 	 993 	 	 783 	 	 6 	 	 554 	 	 625 	 	 198 
  45 	 	 923 	 	 234 	 	 5 	 	 433 	 	 549 	 	 124 
  46 	 	 486 	 	 125 	 	 10 	 	 361 	 	 412 	 	 143 
  47 	 	 349 	 	 440 	 	 5 	 	 1331 	 	 1499 	 	 160 
  48 	 	 711 	 	 598 	 	 7 	 	 1181 	 	 1285 	 	 173 
  49 	 	 344 	 	 317 	 	 8 	 	 441 	 	 619 	 	 151 
  50 	 	 748 	 	 641 	 	 5 	 	 189 	 	 313 	 	 161 
  51 	 	 457 	 	 101 	 	 5 	 	 1417 	 	 1471 	 	 177 
  52 	 	 236 	 	 413 	 	 7 	 	 1288 	 	 1393 	 	 110 
  53 	 	 437 	 	 118 	 	 6 	 	 1460 	 	 1518 	 	 155 
  54 	 	 881 	 	 666 	 	 8 	 	 372 	 	 457 	 	 185 
  55 	 	 495 	 	 117 	 	 7 	 	 364 	 	 421 	 	 185 
  56 	 	 337 	 	 489 	 	 9 	 	 1424 	 	 1584 	 	 168 
  57 	 	 247 	 	 343 	 	 5 	 	 1007 	 	 1088 	 	 186 
  58 	 	 227 	 	 491 	 	 10 	 	 210 	 	 300 	 	 138 
  59 	 	 965 	 	 610 	 	 5 	 	 927 	 	 1079 	 	 128 
  60 	 	 862 	 	 244 	 	 5 	 	 374 	 	 487 	 	 197 
  61 	 	 898 	 	 335 	 	 8 	 	 1067 	 	 1209 	 	 199 
  62 	 	 496 	 	 158 	 	 5 	 	 1302 	 	 1453 	 	 134 
  63 	 	 225 	 	 620 	 	 5 	 	 211 	 	 330 	 	 193 
  64 	 	 608 	 	 20 	 	 8 	 	 496 	 	 589 	 	 155 
  65 	 	 406 	 	 410 	 	 5 	 	 76 	 	 164 	 	 174 
  66 	 	 329 	 	 647 	 	 9 	 	 921 	 	 1099 	 	 138 
  67 	 	 495 	 	 188 	 	 8 	 	 983 	 	 1074 	 	 179 
  68 	 	 411 	 	 130 	 	 10 	 	 911 	 	 979 	 	 151 
  69 	 	 190 	 	 396 	 	 10 	 	 1356 	 	 1491 	 	 133 
  70 	 	 383 	 	 438 	 	 7 	 	 854 	 	 934 	 	 139 
  71 	 	 831 	 	 510 	 	 5 	 	 746 	 	 914 	 	 125 
  72 	 	 900 	 	 120 	 	 7 	 	 800 	 	 866 	 	 155 
  73 	 	 410 	 	 225 	 	 10 	 	 695 	 	 796 	 	 171 
  74 	 	 110 	 	 391 	 	 10 	 	 1207 	 	 1257 	 	 161 
  75 	 	 364 	 	 584 	 	 9 	 	 1469 	 	 1623 	 	 156 
  76 	 	 799 	 	 576 	 	 6 	 	 320 	 	 497 	 	 121 
  77 	 	 873 	 	 118 	 	 10 	 	 568 	 	 757 	 	 130 
  78 	 	 915 	 	 689 	 	 5 	 	 316 	 	 501 	 	 108 
  79 	 	 1000 	 	 819 	 	 8 	 	 755 	 	 928 	 	 127 
  80 	 	 964 	 	 150 	 	 6 	 	 518 	 	 639 	 	 138 
  81 	 	 505 	 	 179 	 	 10 	 	 916 	 	 976 	 	 149 
  82 	 	 772 	 	 183 	 	 6 	 	 1258 	 	 1314 	 	 139 
  83 	 	 547 	 	 124 	 	 7 	 	 263 	 	 416 	 	 134 
  84 	 	 297 	 	 696 	 	 8 	 	 206 	 	 310 	 	 172 
  85 	 	 151 	 	 336 	 	 10 	 	 287 	 	 424 	 	 163 
  86 	 	 51 	 	 358 	 	 5 	 	 1208 	 	 1398 	 	 170 
  87 	 	 866 	 	 724 	 	 6 	 	 321 	 	 472 	 	 114 
  88 	 	 856 	 	 176 	 	 5 	 	 1248 	 	 1364 	 	 191 
  89 	 	 366 	 	 483 	 	 7 	 	 1329 	 	 1501 	 	 106 
  90 	 	 472 	 	 143 	 	 9 	 	 1133 	 	 1196 	 	 119 
  91 	 	 789 	 	 559 	 	 10 	 	 253 	 	 328 	 	 103 
  92 	 	 930 	 	 790 	 	 10 	 	 757 	 	 861 	 	 163 
  93 	 	 832 	 	 566 	 	 5 	 	 245 	 	 405 	 	 181 
  94 	 	 878 	 	 509 	 	 10 	 	 308 	 	 415 	 	 122 
  95 	 	 552 	 	 55 	 	 8 	 	 487 	 	 615 	 	 101 
  96 	 	 515 	 	 165 	 	 7 	 	 784 	 	 941 	 	 172 
  97 	 	 648 	 	 81 	 	 8 	 	 1485 	 	 1623 	 	 160 
  98 	 	 322 	 	 666 	 	 6 	 	 494 	 	 627 	 	 152 
  99 	 	 248 	 	 641 	 	 9 	 	 1495 	 	 1623 	 	 142 
  100 	 	 364 	 	 612 	 	 9 	 	 721 	 	 907 	 	 184 
 